25
56.16 39.02
57.19 39.02
58.22 39.02
59.25 39.02
60.28 39.02
61.31 39.02
61.31 39.57
61.31 40.11
61.31 40.66
61.31 41.2
61.31 41.75
60.28 41.75
59.25 41.75
58.22 41.75
57.19 41.75
56.16 41.75
56.16 41.2
56.16 40.66
56.16 40.11
56.16 39.57
29.72 21.55
26.92 20.27
24.12 18.99
21.32 17.71
69.76 16.52
